tref                 = 20121028 000000
tstart               = 20121028 000000
tstop                = 20121031 000000
tspinup              = 3600.0
dthisout             = 600.0
dtmapout             = 3600.0
dtmaxout             = 86400.0
trstout              = -999.0
dtwave               = 1800.0
dtwnd                = 1800.0
alpha                = 0.5
huthresh             = 0.01
advection            = 1
coriolis             = 1
viscosity            = 1
nuvisc               = 0.01
rhoa                 = 1.25
rhow                 = 1024.0
latitude             = 40.32
baro                 = 1
pavbnd               = 0.0
zsini                = 0.0
btfilter             = 60.0
snapwave             = 1
snapwave_wind        = 1
snapwave_igwaves     = 0
snapwave_dtheta      = 5.0
snapwave_hmin        = 0.01
epsg                 = 32618
crsfile              = sfincs.crs
cdnrb                = 3
cdwnd                = 0.0 28.0 50.0
cdval                = 0.001 0.0025 0.0025
qtrfile              = sfincs.nc
sbgfile              = sfincs_subgrid.nc
manningfile          = roughness.nc
netbndbzsbzifile     = sfincs_netbndbzsbzifile.nc
netsrcdisfile        = sfincs_netsrcdisfile.nc
netamuamvfile        = sfincs_netamuv.nc
netamprfile          = sfincs_netampr.nc
netampfile           = sfincs_netamp.nc
snapwave_bndfile     = snapwave.bnd
snapwave_bhsfile     = snapwave.bhs
snapwave_btpfile     = snapwave.btp
snapwave_bwdfile     = snapwave.bwd
snapwave_bdsfile     = snapwave.bds
obsfile              = sfincs.obs
storevel             = 1
storecumprcp         = 0
storemeteo           = 0
storefw              = 1
storewavdir          = 1
snapwave_sector      = 360
snapwave_alpha       = 1
snapwave_gamma       = 0.78
snapwave_fw          = 0.02
snapwave_niter       = 100
